certificates/rado_a3_c92_N30.cnf
c Rad2 upper bound instance: x1 + 3*x2 - x3 = 92, interval [1,30]
p cnf 30 290
1 3 30 0
-1 -3 -30 0
2 4 30 0
-2 -4 -30 0
3 5 30 0
-3 -5 -30 0
1 6 29 0
-1 -6 -29 0
4 6 30 0
-4 -6 -30 0
2 7 29 0
-2 -7 -29 0
5 7 30 0
-5 -7 -30 0
3 8 29 0
-3 -8 -29 0
6 8 30 0
-6 -8 -30 0
1 9 28 0
-1 -9 -28 0
4 9 29 0
-4 -9 -29 0
7 9 30 0
-7 -9 -30 0
2 10 28 0
-2 -10 -28 0
5 10 29 0
-5 -10 -29 0
8 10 30 0
-8 -10 -30 0
3 11 28 0
-3 -11 -28 0
6 11 29 0
-6 -11 -29 0
9 11 30 0
-9 -11 -30 0
1 12 27 0
-1 -12 -27 0
4 12 28 0
-4 -12 -28 0
7 12 29 0
-7 -12 -29 0
10 12 30 0
-10 -12 -30 0
2 13 27 0
-2 -13 -27 0
5 13 28 0
-5 -13 -28 0
8 13 29 0
-8 -13 -29 0
11 13 30 0
-11 -13 -30 0
3 14 27 0
-3 -14 -27 0
6 14 28 0
-6 -14 -28 0
9 14 29 0
-9 -14 -29 0
12 14 30 0
-12 -14 -30 0
1 15 26 0
-1 -15 -26 0
4 15 27 0
-4 -15 -27 0
7 15 28 0
-7 -15 -28 0
10 15 29 0
-10 -15 -29 0
13 15 30 0
-13 -15 -30 0
2 16 26 0
-2 -16 -26 0
5 16 27 0
-5 -16 -27 0
8 16 28 0
-8 -16 -28 0
11 16 29 0
-11 -16 -29 0
14 16 30 0
-14 -16 -30 0
3 17 26 0
-3 -17 -26 0
6 17 27 0
-6 -17 -27 0
9 17 28 0
-9 -17 -28 0
12 17 29 0
-12 -17 -29 0
15 17 30 0
-15 -17 -30 0
1 18 25 0
-1 -18 -25 0
4 18 26 0
-4 -18 -26 0
7 18 27 0
-7 -18 -27 0
10 18 28 0
-10 -18 -28 0
13 18 29 0
-13 -18 -29 0
16 18 30 0
-16 -18 -30 0
2 19 25 0
-2 -19 -25 0
5 19 26 0
-5 -19 -26 0
8 19 27 0
-8 -19 -27 0
11 19 28 0
-11 -19 -28 0
14 19 29 0
-14 -19 -29 0
17 19 30 0
-17 -19 -30 0
3 20 25 0
-3 -20 -25 0
6 20 26 0
-6 -20 -26 0
9 20 27 0
-9 -20 -27 0
12 20 28 0
-12 -20 -28 0
15 20 29 0
-15 -20 -29 0
18 20 30 0
-18 -20 -30 0
1 21 24 0
-1 -21 -24 0
4 21 25 0
-4 -21 -25 0
7 21 26 0
-7 -21 -26 0
10 21 27 0
-10 -21 -27 0
13 21 28 0
-13 -21 -28 0
16 21 29 0
-16 -21 -29 0
19 21 30 0
-19 -21 -30 0
2 22 24 0
-2 -22 -24 0
5 22 25 0
-5 -22 -25 0
8 22 26 0
-8 -22 -26 0
11 22 27 0
-11 -22 -27 0
14 22 28 0
-14 -22 -28 0
17 22 29 0
-17 -22 -29 0
20 22 30 0
-20 -22 -30 0
3 23 24 0
-3 -23 -24 0
6 23 25 0
-6 -23 -25 0
9 23 26 0
-9 -23 -26 0
12 23 27 0
-12 -23 -27 0
15 23 28 0
-15 -23 -28 0
18 23 29 0
-18 -23 -29 0
21 23 30 0
-21 -23 -30 0
1 23 24 0
-1 -23 -24 0
4 24 0
-4 -24 0
7 24 25 0
-7 -24 -25 0
10 24 26 0
-10 -24 -26 0
13 24 27 0
-13 -24 -27 0
16 24 28 0
-16 -24 -28 0
19 24 29 0
-19 -24 -29 0
22 24 30 0
-22 -24 -30 0
2 23 25 0
-2 -23 -25 0
5 24 25 0
-5 -24 -25 0
8 25 0
-8 -25 0
11 25 26 0
-11 -25 -26 0
14 25 27 0
-14 -25 -27 0
17 25 28 0
-17 -25 -28 0
20 25 29 0
-20 -25 -29 0
23 25 30 0
-23 -25 -30 0
3 23 26 0
-3 -23 -26 0
6 24 26 0
-6 -24 -26 0
9 25 26 0
-9 -25 -26 0
12 26 0
-12 -26 0
15 26 27 0
-15 -26 -27 0
18 26 28 0
-18 -26 -28 0
21 26 29 0
-21 -26 -29 0
24 26 30 0
-24 -26 -30 0
1 22 27 0
-1 -22 -27 0
4 23 27 0
-4 -23 -27 0
7 24 27 0
-7 -24 -27 0
10 25 27 0
-10 -25 -27 0
13 26 27 0
-13 -26 -27 0
16 27 0
-16 -27 0
19 27 28 0
-19 -27 -28 0
22 27 29 0
-22 -27 -29 0
25 27 30 0
-25 -27 -30 0
2 22 28 0
-2 -22 -28 0
5 23 28 0
-5 -23 -28 0
8 24 28 0
-8 -24 -28 0
11 25 28 0
-11 -25 -28 0
14 26 28 0
-14 -26 -28 0
17 27 28 0
-17 -27 -28 0
20 28 0
-20 -28 0
23 28 29 0
-23 -28 -29 0
26 28 30 0
-26 -28 -30 0
3 22 29 0
-3 -22 -29 0
6 23 29 0
-6 -23 -29 0
9 24 29 0
-9 -24 -29 0
12 25 29 0
-12 -25 -29 0
15 26 29 0
-15 -26 -29 0
18 27 29 0
-18 -27 -29 0
21 28 29 0
-21 -28 -29 0
24 29 0
-24 -29 0
27 29 30 0
-27 -29 -30 0
1 21 30 0
-1 -21 -30 0
4 22 30 0
-4 -22 -30 0
7 23 30 0
-7 -23 -30 0
10 24 30 0
-10 -24 -30 0
13 25 30 0
-13 -25 -30 0
16 26 30 0
-16 -26 -30 0
19 27 30 0
-19 -27 -30 0
22 28 30 0
-22 -28 -30 0
25 29 30 0
-25 -29 -30 0
28 30 0
-28 -30 0
