certificates/rado_a3_c92_N30.drat
-30 0
28 0
-20 0
18 0
22 0
-10 0
-26 0
-14 0
-2 0
8 0
12 0
24 0
16 0
6 0
4 0
0
